63945 59953 
64291 59549 
64146 59805 
60410 61708 
63866 60111 
64590 59315 
65352 57700 
64749 58884 
65677 56416 
62171 61302 
65094 58671 
62983 60799 
62898 60848 
65161 58117 
64262 59706 
60320 61763 
65494 57349 
63608 60280 
61227 61585 
63827 60185 
64735 59059 
62632 60990 
64787 58685 
62516 61089 
65113 58225 
64370 59467 
63482 60398 
63062 60641 
64107 59879 
61713 61335 
62782 60947 
60896 61614 
61700 61385 
65265 57936 
65542 57332 
65781 56235 
65665 56614 
65355 57587 
65128 58119 
64706 59216 
61539 61406 
60441 61663 
65616 57162 
63328 60586 
59231 61784 
59186 61801 
61499 61538 
60717 61643 
65604 57185 
